n = 4;
num_of_regions = 7;
regions_max_size = 3;

regions = [|
5, 2, 1,1, 2,1, 0,0, |
3, 2, 1,2, 1,3, 0,0, |
5, 2, 1,4, 2,4, 0,0, |
8, 3, 2,2, 3,1, 3,2, |
7, 2, 2,3, 3,3, 0,0, |
5, 2, 3,4, 4,4, 0,0, |
7, 3, 4,1, 4,2, 4,3, |];